solution/p_3_8.txt_600.row.lp
\ENCODING=ISO-8859-1
\Problem name: ilog.cplex

Maximize
 obj: 17 x_ijk_0_0_0 + 13 x_ijk_0_1_0 + 14 x_ijk_0_2_0 + 12 x_ijk_0_3_0
      + 14 x_ijk_0_4_0 + 12 x_ijk_1_0_0 + 14 x_ijk_1_1_0 + 5 x_ijk_1_2_0
      + 6 x_ijk_2_0_0 + 19 x_ijk_2_1_0 + 18 x_ijk_3_0_0 + 2 x_ijk_3_1_0
      + 5 x_ijk_3_2_0 + 2 x_ijk_3_3_0 + 3 x_ijk_4_0_0 + 10 x_ijk_4_1_0
      + 9 x_ijk_4_2_0 + 7 x_ijk_4_3_0 + 8 x_ijk_5_0_0 + 6 x_ijk_5_1_0
      + 6 x_ijk_6_0_0 + 14 x_ijk_6_1_0 + 11 x_ijk_6_2_0 + 18 x_ijk_6_3_0
      + 7 x_ijk_6_4_0 + 11 x_ijk_7_0_0 + 19 x_ijk_7_1_0 + 16 x_ijk_7_2_0
      + 17 x_ijk_0_0_1 + 13 x_ijk_0_1_1 + 14 x_ijk_0_2_1 + 12 x_ijk_0_3_1
      + 14 x_ijk_0_4_1 + 12 x_ijk_1_0_1 + 14 x_ijk_1_1_1 + 5 x_ijk_1_2_1
      + 6 x_ijk_2_0_1 + 19 x_ijk_2_1_1 + 18 x_ijk_3_0_1 + 2 x_ijk_3_1_1
      + 5 x_ijk_3_2_1 + 2 x_ijk_3_3_1 + 3 x_ijk_4_0_1 + 10 x_ijk_4_1_1
      + 9 x_ijk_4_2_1 + 7 x_ijk_4_3_1 + 8 x_ijk_5_0_1 + 6 x_ijk_5_1_1
      + 6 x_ijk_6_0_1 + 14 x_ijk_6_1_1 + 11 x_ijk_6_2_1 + 18 x_ijk_6_3_1
      + 7 x_ijk_6_4_1 + 11 x_ijk_7_0_1 + 19 x_ijk_7_1_1 + 16 x_ijk_7_2_1
      + 17 x_ijk_0_0_2 + 13 x_ijk_0_1_2 + 14 x_ijk_0_2_2 + 12 x_ijk_0_3_2
      + 14 x_ijk_0_4_2 + 12 x_ijk_1_0_2 + 14 x_ijk_1_1_2 + 5 x_ijk_1_2_2
      + 6 x_ijk_2_0_2 + 19 x_ijk_2_1_2 + 18 x_ijk_3_0_2 + 2 x_ijk_3_1_2
      + 5 x_ijk_3_2_2 + 2 x_ijk_3_3_2 + 3 x_ijk_4_0_2 + 10 x_ijk_4_1_2
      + 9 x_ijk_4_2_2 + 7 x_ijk_4_3_2 + 8 x_ijk_5_0_2 + 6 x_ijk_5_1_2
      + 6 x_ijk_6_0_2 + 14 x_ijk_6_1_2 + 11 x_ijk_6_2_2 + 18 x_ijk_6_3_2
      + 7 x_ijk_6_4_2 + 11 x_ijk_7_0_2 + 19 x_ijk_7_1_2 + 16 x_ijk_7_2_2
Subject To
 c1:  11 x_ijk_0_0_0 + 3 x_ijk_0_1_0 + 16 x_ijk_0_2_0 + 34 x_ijk_0_3_0
      + 19 x_ijk_0_4_0 + 33 x_ijk_1_0_0 + 5 x_ijk_1_1_0 + 37 x_ijk_1_2_0
      + 6 x_ijk_2_0_0 + x_ijk_2_1_0 + 2 x_ijk_3_0_0 + 14 x_ijk_3_1_0
      + 28 x_ijk_3_2_0 + 39 x_ijk_3_3_0 + 24 x_ijk_4_0_0 + 6 x_ijk_4_1_0
      + 7 x_ijk_4_2_0 + 8 x_ijk_4_3_0 + 17 x_ijk_5_0_0 + 3 x_ijk_5_1_0
      + 40 x_ijk_6_0_0 + 14 x_ijk_6_1_0 + 36 x_ijk_6_2_0 + 18 x_ijk_6_3_0
      + 29 x_ijk_6_4_0 + 5 x_ijk_7_0_0 + 32 x_ijk_7_1_0 + 36 x_ijk_7_2_0 <= 55
 c2:  3 x_ijk_0_0_1 + 33 x_ijk_0_1_1 + 33 x_ijk_0_2_1 + 6 x_ijk_0_3_1
      + 31 x_ijk_0_4_1 + 22 x_ijk_1_0_1 + 8 x_ijk_1_1_1 + 35 x_ijk_1_2_1
      + 2 x_ijk_2_0_1 + 29 x_ijk_2_1_1 + 8 x_ijk_3_0_1 + 18 x_ijk_3_1_1
      + 8 x_ijk_3_2_1 + 9 x_ijk_3_3_1 + 20 x_ijk_4_0_1 + 20 x_ijk_4_1_1
      + 14 x_ijk_4_2_1 + 21 x_ijk_4_3_1 + 17 x_ijk_5_0_1 + 11 x_ijk_5_1_1
      + 15 x_ijk_6_0_1 + 5 x_ijk_6_1_1 + 9 x_ijk_6_2_1 + 14 x_ijk_6_3_1
      + 17 x_ijk_6_4_1 + 31 x_ijk_7_0_1 + 10 x_ijk_7_1_1 + 22 x_ijk_7_2_1 <= 36
 c3:  2 x_ijk_0_0_2 + x_ijk_0_1_2 + x_ijk_0_2_2 + x_ijk_0_3_2 + 2 x_ijk_0_4_2
      + 2 x_ijk_1_0_2 + 2 x_ijk_1_1_2 + x_ijk_1_2_2 + 2 x_ijk_2_0_2
      + x_ijk_2_1_2 + 2 x_ijk_3_0_2 + 2 x_ijk_3_1_2 + 2 x_ijk_3_2_2
      + x_ijk_3_3_2 + 2 x_ijk_4_0_2 + 2 x_ijk_4_1_2 + x_ijk_4_2_2
      + 2 x_ijk_4_3_2 + 2 x_ijk_5_0_2 + x_ijk_5_1_2 + 2 x_ijk_6_0_2
      + x_ijk_6_1_2 + x_ijk_6_2_2 + x_ijk_6_3_2 + 2 x_ijk_6_4_2 + 2 x_ijk_7_0_2
      + 2 x_ijk_7_1_2 + x_ijk_7_2_2 <= 2
 c4:  x_ijk_0_0_0 + x_ijk_0_1_0 + x_ijk_0_2_0 + x_ijk_0_3_0 + x_ijk_0_4_0 <= 1
 c5:  x_ijk_0_0_1 + x_ijk_0_1_1 + x_ijk_0_2_1 + x_ijk_0_3_1 + x_ijk_0_4_1 <= 1
 c6:  x_ijk_0_0_2 + x_ijk_0_1_2 + x_ijk_0_2_2 + x_ijk_0_3_2 + x_ijk_0_4_2 <= 1
 c7:  x_ijk_1_0_0 + x_ijk_1_1_0 + x_ijk_1_2_0 <= 1
 c8:  x_ijk_1_0_1 + x_ijk_1_1_1 + x_ijk_1_2_1 <= 1
 c9:  x_ijk_1_0_2 + x_ijk_1_1_2 + x_ijk_1_2_2 <= 1
 c10: x_ijk_2_0_0 + x_ijk_2_1_0 <= 1
 c11: x_ijk_2_0_1 + x_ijk_2_1_1 <= 1
 c12: x_ijk_2_0_2 + x_ijk_2_1_2 <= 1
 c13: x_ijk_3_0_0 + x_ijk_3_1_0 + x_ijk_3_2_0 + x_ijk_3_3_0 <= 1
 c14: x_ijk_3_0_1 + x_ijk_3_1_1 + x_ijk_3_2_1 + x_ijk_3_3_1 <= 1
 c15: x_ijk_3_0_2 + x_ijk_3_1_2 + x_ijk_3_2_2 + x_ijk_3_3_2 <= 1
 c16: x_ijk_4_0_0 + x_ijk_4_1_0 + x_ijk_4_2_0 + x_ijk_4_3_0 <= 1
 c17: x_ijk_4_0_1 + x_ijk_4_1_1 + x_ijk_4_2_1 + x_ijk_4_3_1 <= 1
 c18: x_ijk_4_0_2 + x_ijk_4_1_2 + x_ijk_4_2_2 + x_ijk_4_3_2 <= 1
 c19: x_ijk_5_0_0 + x_ijk_5_1_0 <= 1
 c20: x_ijk_5_0_1 + x_ijk_5_1_1 <= 1
 c21: x_ijk_5_0_2 + x_ijk_5_1_2 <= 1
 c22: x_ijk_6_0_0 + x_ijk_6_1_0 + x_ijk_6_2_0 + x_ijk_6_3_0 + x_ijk_6_4_0 <= 1
 c23: x_ijk_6_0_1 + x_ijk_6_1_1 + x_ijk_6_2_1 + x_ijk_6_3_1 + x_ijk_6_4_1 <= 1
 c24: x_ijk_6_0_2 + x_ijk_6_1_2 + x_ijk_6_2_2 + x_ijk_6_3_2 + x_ijk_6_4_2 <= 1
 c25: x_ijk_7_0_0 + x_ijk_7_1_0 + x_ijk_7_2_0 <= 1
 c26: x_ijk_7_0_1 + x_ijk_7_1_1 + x_ijk_7_2_1 <= 1
 c27: x_ijk_7_0_2 + x_ijk_7_1_2 + x_ijk_7_2_2 <= 1
Bounds
 0 <= x_ijk_0_0_0 <= 1
 0 <= x_ijk_0_1_0 <= 1
 0 <= x_ijk_0_2_0 <= 1
 0 <= x_ijk_0_3_0 <= 1
 0 <= x_ijk_0_4_0 <= 1
 0 <= x_ijk_1_0_0 <= 1
 0 <= x_ijk_1_1_0 <= 1
 0 <= x_ijk_1_2_0 <= 1
 0 <= x_ijk_2_0_0 <= 1
 0 <= x_ijk_2_1_0 <= 1
 0 <= x_ijk_3_0_0 <= 1
 0 <= x_ijk_3_1_0 <= 1
 0 <= x_ijk_3_2_0 <= 1
 0 <= x_ijk_3_3_0 <= 1
 0 <= x_ijk_4_0_0 <= 1
 0 <= x_ijk_4_1_0 <= 1
 0 <= x_ijk_4_2_0 <= 1
 0 <= x_ijk_4_3_0 <= 1
 0 <= x_ijk_5_0_0 <= 1
 0 <= x_ijk_5_1_0 <= 1
 0 <= x_ijk_6_0_0 <= 1
 0 <= x_ijk_6_1_0 <= 1
 0 <= x_ijk_6_2_0 <= 1
 0 <= x_ijk_6_3_0 <= 1
 0 <= x_ijk_6_4_0 <= 1
 0 <= x_ijk_7_0_0 <= 1
 0 <= x_ijk_7_1_0 <= 1
 0 <= x_ijk_7_2_0 <= 1
 0 <= x_ijk_0_0_1 <= 1
 0 <= x_ijk_0_1_1 <= 1
 0 <= x_ijk_0_2_1 <= 1
 0 <= x_ijk_0_3_1 <= 1
 0 <= x_ijk_0_4_1 <= 1
 0 <= x_ijk_1_0_1 <= 1
 0 <= x_ijk_1_1_1 <= 1
 0 <= x_ijk_1_2_1 <= 1
 0 <= x_ijk_2_0_1 <= 1
 0 <= x_ijk_2_1_1 <= 1
 0 <= x_ijk_3_0_1 <= 1
 0 <= x_ijk_3_1_1 <= 1
 0 <= x_ijk_3_2_1 <= 1
 0 <= x_ijk_3_3_1 <= 1
 0 <= x_ijk_4_0_1 <= 1
 0 <= x_ijk_4_1_1 <= 1
 0 <= x_ijk_4_2_1 <= 1
 0 <= x_ijk_4_3_1 <= 1
 0 <= x_ijk_5_0_1 <= 1
 0 <= x_ijk_5_1_1 <= 1
 0 <= x_ijk_6_0_1 <= 1
 0 <= x_ijk_6_1_1 <= 1
 0 <= x_ijk_6_2_1 <= 1
 0 <= x_ijk_6_3_1 <= 1
 0 <= x_ijk_6_4_1 <= 1
 0 <= x_ijk_7_0_1 <= 1
 0 <= x_ijk_7_1_1 <= 1
 0 <= x_ijk_7_2_1 <= 1
 0 <= x_ijk_0_0_2 <= 1
 0 <= x_ijk_0_1_2 <= 1
 0 <= x_ijk_0_2_2 <= 1
 0 <= x_ijk_0_3_2 <= 1
 0 <= x_ijk_0_4_2 <= 1
 0 <= x_ijk_1_0_2 <= 1
 0 <= x_ijk_1_1_2 <= 1
 0 <= x_ijk_1_2_2 <= 1
 0 <= x_ijk_2_0_2 <= 1
 0 <= x_ijk_2_1_2 <= 1
 0 <= x_ijk_3_0_2 <= 1
 0 <= x_ijk_3_1_2 <= 1
 0 <= x_ijk_3_2_2 <= 1
 0 <= x_ijk_3_3_2 <= 1
 0 <= x_ijk_4_0_2 <= 1
 0 <= x_ijk_4_1_2 <= 1
 0 <= x_ijk_4_2_2 <= 1
 0 <= x_ijk_4_3_2 <= 1
 0 <= x_ijk_5_0_2 <= 1
 0 <= x_ijk_5_1_2 <= 1
 0 <= x_ijk_6_0_2 <= 1
 0 <= x_ijk_6_1_2 <= 1
 0 <= x_ijk_6_2_2 <= 1
 0 <= x_ijk_6_3_2 <= 1
 0 <= x_ijk_6_4_2 <= 1
 0 <= x_ijk_7_0_2 <= 1
 0 <= x_ijk_7_1_2 <= 1
 0 <= x_ijk_7_2_2 <= 1
Binaries
 x_ijk_0_0_0  x_ijk_0_1_0  x_ijk_0_2_0  x_ijk_0_3_0  x_ijk_0_4_0  x_ijk_1_0_0 
 x_ijk_1_1_0  x_ijk_1_2_0  x_ijk_2_0_0  x_ijk_2_1_0  x_ijk_3_0_0  x_ijk_3_1_0 
 x_ijk_3_2_0  x_ijk_3_3_0  x_ijk_4_0_0  x_ijk_4_1_0  x_ijk_4_2_0  x_ijk_4_3_0 
 x_ijk_5_0_0  x_ijk_5_1_0  x_ijk_6_0_0  x_ijk_6_1_0  x_ijk_6_2_0  x_ijk_6_3_0 
 x_ijk_6_4_0  x_ijk_7_0_0  x_ijk_7_1_0  x_ijk_7_2_0  x_ijk_0_0_1  x_ijk_0_1_1 
 x_ijk_0_2_1  x_ijk_0_3_1  x_ijk_0_4_1  x_ijk_1_0_1  x_ijk_1_1_1  x_ijk_1_2_1 
 x_ijk_2_0_1  x_ijk_2_1_1  x_ijk_3_0_1  x_ijk_3_1_1  x_ijk_3_2_1  x_ijk_3_3_1 
 x_ijk_4_0_1  x_ijk_4_1_1  x_ijk_4_2_1  x_ijk_4_3_1  x_ijk_5_0_1  x_ijk_5_1_1 
 x_ijk_6_0_1  x_ijk_6_1_1  x_ijk_6_2_1  x_ijk_6_3_1  x_ijk_6_4_1  x_ijk_7_0_1 
 x_ijk_7_1_1  x_ijk_7_2_1  x_ijk_0_0_2  x_ijk_0_1_2  x_ijk_0_2_2  x_ijk_0_3_2 
 x_ijk_0_4_2  x_ijk_1_0_2  x_ijk_1_1_2  x_ijk_1_2_2  x_ijk_2_0_2  x_ijk_2_1_2 
 x_ijk_3_0_2  x_ijk_3_1_2  x_ijk_3_2_2  x_ijk_3_3_2  x_ijk_4_0_2  x_ijk_4_1_2 
 x_ijk_4_2_2  x_ijk_4_3_2  x_ijk_5_0_2  x_ijk_5_1_2  x_ijk_6_0_2  x_ijk_6_1_2 
 x_ijk_6_2_2  x_ijk_6_3_2  x_ijk_6_4_2  x_ijk_7_0_2  x_ijk_7_1_2  x_ijk_7_2_2 
End
